InboundTrucks  = 20;
OutboundTrucks = 13;
InboundDoors   = 5;
OutboundDoors  = 5;
ReleaseTime    = [25,58,14,22,0,80,80,37,29,51,26,51,69,113,57,7,81,80,22,16];
UnloadTime     = [16,25,11,25,26,13,23,19,32,30,30,43,23,31,35,44,38,19,40,13];
LoadTime       = [28,19,24,15,22,11,15,22,27,6,30,7,26];
TransferTime   = [| 0,0,0,15,40,0,0,0,0,0,0,24,0 | 0,0,0,10,0,0,0,0,0,48,12,0,0 | 0,30,0,37,0,0,0,25,0,41,0,0,41 | 0,21,0,0,42,16,0,0,0,0,0,0,0 | 21,0,0,0,0,0,0,35,0,0,0,0,0 | 0,0,46,0,41,46,0,44,0,0,0,0,0 | 35,0,16,0,0,0,0,39,0,0,0,35,0 | 0,0,0,34,0,0,39,45,12,0,20,0,20 | 48,0,0,0,0,0,0,0,0,0,0,0,0 | 0,12,25,0,0,26,0,0,0,0,0,0,31 | 0,11,0,0,0,0,0,0,0,0,0,0,0 | 0,0,0,14,0,0,0,0,11,0,0,0,26 | 21,0,34,0,0,0,0,0,0,0,20,0,45 | 0,47,0,0,12,33,43,47,0,0,0,0,14 | 36,0,18,0,28,0,0,37,23,0,0,11,0 | 45,0,0,0,0,0,18,0,17,39,0,0,0 | 0,0,0,0,36,0,0,0,20,0,0,0,0 | 0,0,0,0,0,0,0,0,0,0,0,0,17 | 0,0,0,0,0,0,0,36,0,20,0,0,0 | 0,0,0,0,0,0,45,0,0,0,0,0,0 |];
